SCEL2_1_1_2_0_0_0/9398                  
   1.00000000000000     
     5.0915815516056133    0.0000000000000000    0.0000000000000000
    -2.5457907758028067    4.4094396036331567    0.0000000000000000
     0.0000000000000000    0.0000000000000000   33.2301925035296009
   Al   Ni   Ti
     2    48    14
Direct
  0.3333332999999996  0.6666667000000004  0.9376726314784847
  0.3333332999999996  0.6666667000000004  0.1248273685215153
  0.1719066414084693  0.3438131828169304  0.7495011730703780
  0.4947600585915310  0.9895201171830692  0.3129988269296220
  0.4946504359804038  0.5053495640165693  0.8126308032700891
  0.4947600585882057  0.5052399414084690  0.3129988269296220
  0.6561868171797371  0.8280933585915307  0.7495011730703780
  0.6559675719638420  0.8279837359834303  0.2498691967299109
  0.1719066414117947  0.8280933585915307  0.7495011730703780
  0.1720162640195966  0.8279837359834303  0.2498691967299109
  0.0104798828202632  0.5052399414084690  0.3129988269296220
  0.1720162640165768  0.3440324280331453  0.2498691967299109
  0.9978987409711451  0.4989493704854837  0.6871272995759483
  0.9983815505575606  0.4991907752789260  0.1872497467808927
  0.5010506295145163  0.0021012590290397  0.6871272995759483
  0.5008092247210740  0.0016184494421552  0.1872497467808927
  0.5010506295143315  0.4989493704854837  0.6871272995759483
  0.5008092247213654  0.4991907752789260  0.1872497467808927
  0.4946504359834236  0.9893008719668543  0.8126308032700891
  0.8330272140380472  0.6660545280760957  0.1249864555143887
  0.0106991280361584  0.5053495640165693  0.8126308032700891
  0.1656160704854841  0.3312320409709599  0.3753727004240517
  0.1658574752789264  0.3317148505578444  0.8752502532191073
  0.1656160704856688  0.8343839295145159  0.3753727004240517
  0.1658574752786421  0.8341425247210736  0.8752502532191073
  0.6687679590288553  0.8343839295145159  0.3753727004240517
  0.6682851494424398  0.8341425247210736  0.8752502532191073
  0.3334869690240794  0.1667435345122783  0.4376523563413954
  0.3327211280759883  0.1663606140380480  0.9375135444856113
  0.8332564654881907  0.1667435345122783  0.4376523563413954
  0.8336393859620586  0.1663606140380480  0.9375135444856113
  0.8332564654877288  0.6665130309754517  0.4376523563413954
  0.8336393859619520  0.6672788719239051  0.9375135444856113
  0.8334101345122704  0.6668203690245491  0.6248476436586117
  0.4998556249609507  0.5001443750392767  0.9997176581646059
  0.4999883791726418  0.5000116208274221  0.5000364564496707
  0.4998556249607233  0.9997112499214538  0.9997176581646059
  0.4999883791725779  0.9999767583451771  0.5000364564496707
  0.0002887500783189  0.5001443750392767  0.9997176581646059
  0.0000232416547732  0.5000116208274221  0.5000364564496707
  0.1668110750392771  0.3336220500785458  0.0627823418353941
  0.1666783208274225  0.3333565416548225  0.5624635435503293
  0.1668110750390497  0.8331889249607229  0.0627823418353941
  0.1666783208273586  0.8333216791725775  0.5624635435503293
  0.6663779499216815  0.8331889249607229  0.0627823418353941
  0.6666434583452272  0.8333216791725775  0.5624635435503293
  0.3339454719240109  0.1669727859619528  0.1249864555143887
  0.3331796309759198  0.1665898654877225  0.6248476436586117
  0.8330272140379407  0.1669727859619528  0.1249864555143887
  0.8334101345118086  0.1665898654877225  0.6248476436586117
  0.0000000000000000  0.0000000000000000  0.4998152793554382
  0.6666667000000004  0.3333332999999996  0.0609424417924345
  0.6666667000000004  0.3333332999999996  0.5626847206445618
  0.3333332999999996  0.6666667000000004  0.6254080554739616
  0.0000000000000000  0.0000000000000000  0.1880123013009154
  0.0000000000000000  0.0000000000000000  0.6891912710188208
  0.6666667000000004  0.3333332999999996  0.2497385859110821
  0.6666667000000004  0.3333332999999996  0.7523619429538542
  0.0000000000000000  0.0000000000000000  0.3101380570461458
  0.0000000000000000  0.0000000000000000  0.8127614140889179
  0.6666667000000004  0.3333332999999996  0.3733087289811792
  0.6666667000000004  0.3333332999999996  0.8744876986990846
  0.3333332999999996  0.6666667000000004  0.4370919445260384
  0.0000000000000000  0.0000000000000000  0.0015575582075655
 
  0.00000000E+00  0.00000000E+00  0.00000000E+00
  0.00000000E+00  0.00000000E+00  0.00000000E+00
  0.00000000E+00  0.00000000E+00  0.00000000E+00
  0.00000000E+00  0.00000000E+00  0.00000000E+00
  0.00000000E+00  0.00000000E+00  0.00000000E+00
  0.00000000E+00  0.00000000E+00  0.00000000E+00
  0.00000000E+00  0.00000000E+00  0.00000000E+00
  0.00000000E+00  0.00000000E+00  0.00000000E+00
  0.00000000E+00  0.00000000E+00  0.00000000E+00
  0.00000000E+00  0.00000000E+00  0.00000000E+00
  0.00000000E+00  0.00000000E+00  0.00000000E+00
  0.00000000E+00  0.00000000E+00  0.00000000E+00
  0.00000000E+00  0.00000000E+00  0.00000000E+00
  0.00000000E+00  0.00000000E+00  0.00000000E+00
  0.00000000E+00  0.00000000E+00  0.00000000E+00
  0.00000000E+00  0.00000000E+00  0.00000000E+00
  0.00000000E+00  0.00000000E+00  0.00000000E+00
  0.00000000E+00  0.00000000E+00  0.00000000E+00
  0.00000000E+00  0.00000000E+00  0.00000000E+00
  0.00000000E+00  0.00000000E+00  0.00000000E+00
  0.00000000E+00  0.00000000E+00  0.00000000E+00
  0.00000000E+00  0.00000000E+00  0.00000000E+00
  0.00000000E+00  0.00000000E+00  0.00000000E+00
  0.00000000E+00  0.00000000E+00  0.00000000E+00
  0.00000000E+00  0.00000000E+00  0.00000000E+00
  0.00000000E+00  0.00000000E+00  0.00000000E+00
  0.00000000E+00  0.00000000E+00  0.00000000E+00
  0.00000000E+00  0.00000000E+00  0.00000000E+00
  0.00000000E+00  0.00000000E+00  0.00000000E+00
  0.00000000E+00  0.00000000E+00  0.00000000E+00
  0.00000000E+00  0.00000000E+00  0.00000000E+00
  0.00000000E+00  0.00000000E+00  0.00000000E+00
  0.00000000E+00  0.00000000E+00  0.00000000E+00
  0.00000000E+00  0.00000000E+00  0.00000000E+00
  0.00000000E+00  0.00000000E+00  0.00000000E+00
  0.00000000E+00  0.00000000E+00  0.00000000E+00
  0.00000000E+00  0.00000000E+00  0.00000000E+00
  0.00000000E+00  0.00000000E+00  0.00000000E+00
  0.00000000E+00  0.00000000E+00  0.00000000E+00
  0.00000000E+00  0.00000000E+00  0.00000000E+00
  0.00000000E+00  0.00000000E+00  0.00000000E+00
  0.00000000E+00  0.00000000E+00  0.00000000E+00
  0.00000000E+00  0.00000000E+00  0.00000000E+00
  0.00000000E+00  0.00000000E+00  0.00000000E+00
  0.00000000E+00  0.00000000E+00  0.00000000E+00
  0.00000000E+00  0.00000000E+00  0.00000000E+00
  0.00000000E+00  0.00000000E+00  0.00000000E+00
  0.00000000E+00  0.00000000E+00  0.00000000E+00
  0.00000000E+00  0.00000000E+00  0.00000000E+00
  0.00000000E+00  0.00000000E+00  0.00000000E+00
  0.00000000E+00  0.00000000E+00  0.00000000E+00
  0.00000000E+00  0.00000000E+00  0.00000000E+00
  0.00000000E+00  0.00000000E+00  0.00000000E+00
  0.00000000E+00  0.00000000E+00  0.00000000E+00
  0.00000000E+00  0.00000000E+00  0.00000000E+00
  0.00000000E+00  0.00000000E+00  0.00000000E+00
  0.00000000E+00  0.00000000E+00  0.00000000E+00
  0.00000000E+00  0.00000000E+00  0.00000000E+00
  0.00000000E+00  0.00000000E+00  0.00000000E+00
  0.00000000E+00  0.00000000E+00  0.00000000E+00
  0.00000000E+00  0.00000000E+00  0.00000000E+00
  0.00000000E+00  0.00000000E+00  0.00000000E+00
  0.00000000E+00  0.00000000E+00  0.00000000E+00
  0.00000000E+00  0.00000000E+00  0.00000000E+00
