MAGMOM = 2*0.0 48*1.0 14*0.0
ISIF = 2
IALGO = 48
NELM = 100
ISYM = 2
SYSTEM = Test of VASP submission
ENCUT = 400.0
LCHARG = .FALSE.
IBRION = -1
PREC = Normal
ISPIN = 2
ISMEAR = -5
LORBIT = 11
NPAR = 4
SIGMA = 0.2
LWAVE = .FALSE.
NSW = 0
