SCEL2_1_1_2_0_0_0/9398                  
   1.00000000000000     
     5.0915815516056133    0.0000000000000000   -0.0000000000000000
    -2.5457907758028067    4.4094396036331567   -0.0000000000000000
     0.0000000000000000    0.0000000000000000   33.2301925035296009
   Al   Ni   Ti
     2    48    14
Direct
  0.3333332999999996  0.6666667000000004  0.9376726314784840
  0.3333332999999996  0.6666667000000004  0.1248273685215160
  0.1719066414084718  0.3438131828169282  0.7495011730703751
  0.4947600585915286  0.9895201171830714  0.3129988269296249
  0.4946504359804070  0.5053495640165718  0.8126308032700876
  0.4947600585882040  0.5052399414084714  0.3129988269296249
  0.6561868171797401  0.8280933585915282  0.7495011730703751
  0.6559675719638427  0.8279837359834278  0.2498691967299123
  0.1719066414117964  0.8280933585915282  0.7495011730703751
  0.1720162640195933  0.8279837359834278  0.2498691967299123
  0.0104798828202603  0.5052399414084714  0.3129988269296249
  0.1720162640165794  0.3440324280331433  0.2498691967299123
  0.9978987409711438  0.4989493704854839  0.6871272995759450
  0.9983815505575628  0.4991907752789291  0.1872497467808892
  0.5010506295145161  0.0021012590290393  0.6871272995759450
  0.5008092247210708  0.0016184494421559  0.1872497467808892
  0.5010506295143329  0.4989493704854839  0.6871272995759450
  0.5008092247213664  0.4991907752789291  0.1872497467808892
  0.4946504359834210  0.9893008719668562  0.8126308032700876
  0.8330272140380485  0.6660545280760981  0.1249864555143921
  0.0106991280361577  0.5053495640165718  0.8126308032700876
  0.1656160704854843  0.3312320409709603  0.3753727004240550
  0.1658574752789296  0.3317148505578437  0.8752502532191108
  0.1656160704856674  0.8343839295145157  0.3753727004240550
  0.1658574752786412  0.8341425247210704  0.8752502532191108
  0.6687679590288566  0.8343839295145157  0.3753727004240550
  0.6682851494424376  0.8341425247210704  0.8752502532191108
  0.3334869690240779  0.1667435345122781  0.4376523563413933
  0.3327211280759911  0.1663606140380493  0.9375135444856080
  0.8332564654881919  0.1667435345122781  0.4376523563413933
  0.8336393859620570  0.1663606140380493  0.9375135444856080
  0.8332564654877290  0.6665130309754522  0.4376523563413933
  0.8336393859619508  0.6672788719239027  0.9375135444856080
  0.8334101345122702  0.6668203690245486  0.6248476436586139
  0.4998556249609476  0.5001443750392760  0.9997176581646088
  0.4999883791726401  0.5000116208274189  0.5000364564496712
  0.4998556249607240  0.9997112499214551  0.9997176581646088
  0.4999883791725812  0.9999767583451766  0.5000364564496712
  0.0002887500783213  0.5001443750392760  0.9997176581646088
  0.0000232416547716  0.5000116208274189  0.5000364564496712
  0.1668110750392764  0.3336220500785445  0.0627823418353912
  0.1666783208274192  0.3333565416548230  0.5624635435503288
  0.1668110750390528  0.8331889249607236  0.0627823418353912
  0.1666783208273603  0.8333216791725807  0.5624635435503288
  0.6663779499216791  0.8331889249607236  0.0627823418353912
  0.6666434583452288  0.8333216791725807  0.5624635435503288
  0.3339454719240081  0.1669727859619515  0.1249864555143921
  0.3331796309759213  0.1665898654877227  0.6248476436586139
  0.8330272140379422  0.1669727859619515  0.1249864555143921
  0.8334101345118073  0.1665898654877227  0.6248476436586139
  0.0000000000000000 -0.0000000000000000  0.4998152793554410
  0.6666667000000004  0.3333332999999996  0.0609424417924342
  0.6666667000000004  0.3333332999999996  0.5626847206445590
  0.3333332999999996  0.6666667000000004  0.6254080554739604
  0.0000000000000000 -0.0000000000000000  0.1880123013009158
  0.0000000000000000  0.0000000000000000  0.6891912710188202
  0.6666667000000004  0.3333332999999996  0.2497385859110841
  0.6666667000000004  0.3333332999999996  0.7523619429538537
  0.0000000000000000 -0.0000000000000000  0.3101380570461462
  0.0000000000000000 -0.0000000000000000  0.8127614140889159
  0.6666667000000004  0.3333332999999996  0.3733087289811798
  0.6666667000000004  0.3333332999999996  0.8744876986990843
  0.3333332999999996  0.6666667000000004  0.4370919445260397
  0.0000000000000000  0.0000000000000000  0.0015575582075658
 
  0.00000000E+00  0.00000000E+00  0.00000000E+00
  0.00000000E+00  0.00000000E+00  0.00000000E+00
  0.00000000E+00  0.00000000E+00  0.00000000E+00
  0.00000000E+00  0.00000000E+00  0.00000000E+00
  0.00000000E+00  0.00000000E+00  0.00000000E+00
  0.00000000E+00  0.00000000E+00  0.00000000E+00
  0.00000000E+00  0.00000000E+00  0.00000000E+00
  0.00000000E+00  0.00000000E+00  0.00000000E+00
  0.00000000E+00  0.00000000E+00  0.00000000E+00
  0.00000000E+00  0.00000000E+00  0.00000000E+00
  0.00000000E+00  0.00000000E+00  0.00000000E+00
  0.00000000E+00  0.00000000E+00  0.00000000E+00
  0.00000000E+00  0.00000000E+00  0.00000000E+00
  0.00000000E+00  0.00000000E+00  0.00000000E+00
  0.00000000E+00  0.00000000E+00  0.00000000E+00
  0.00000000E+00  0.00000000E+00  0.00000000E+00
  0.00000000E+00  0.00000000E+00  0.00000000E+00
  0.00000000E+00  0.00000000E+00  0.00000000E+00
  0.00000000E+00  0.00000000E+00  0.00000000E+00
  0.00000000E+00  0.00000000E+00  0.00000000E+00
  0.00000000E+00  0.00000000E+00  0.00000000E+00
  0.00000000E+00  0.00000000E+00  0.00000000E+00
  0.00000000E+00  0.00000000E+00  0.00000000E+00
  0.00000000E+00  0.00000000E+00  0.00000000E+00
  0.00000000E+00  0.00000000E+00  0.00000000E+00
  0.00000000E+00  0.00000000E+00  0.00000000E+00
  0.00000000E+00  0.00000000E+00  0.00000000E+00
  0.00000000E+00  0.00000000E+00  0.00000000E+00
  0.00000000E+00  0.00000000E+00  0.00000000E+00
  0.00000000E+00  0.00000000E+00  0.00000000E+00
  0.00000000E+00  0.00000000E+00  0.00000000E+00
  0.00000000E+00  0.00000000E+00  0.00000000E+00
  0.00000000E+00  0.00000000E+00  0.00000000E+00
  0.00000000E+00  0.00000000E+00  0.00000000E+00
  0.00000000E+00  0.00000000E+00  0.00000000E+00
  0.00000000E+00  0.00000000E+00  0.00000000E+00
  0.00000000E+00  0.00000000E+00  0.00000000E+00
  0.00000000E+00  0.00000000E+00  0.00000000E+00
  0.00000000E+00  0.00000000E+00  0.00000000E+00
  0.00000000E+00  0.00000000E+00  0.00000000E+00
  0.00000000E+00  0.00000000E+00  0.00000000E+00
  0.00000000E+00  0.00000000E+00  0.00000000E+00
  0.00000000E+00  0.00000000E+00  0.00000000E+00
  0.00000000E+00  0.00000000E+00  0.00000000E+00
  0.00000000E+00  0.00000000E+00  0.00000000E+00
  0.00000000E+00  0.00000000E+00  0.00000000E+00
  0.00000000E+00  0.00000000E+00  0.00000000E+00
  0.00000000E+00  0.00000000E+00  0.00000000E+00
  0.00000000E+00  0.00000000E+00  0.00000000E+00
  0.00000000E+00  0.00000000E+00  0.00000000E+00
  0.00000000E+00  0.00000000E+00  0.00000000E+00
  0.00000000E+00  0.00000000E+00  0.00000000E+00
  0.00000000E+00  0.00000000E+00  0.00000000E+00
  0.00000000E+00  0.00000000E+00  0.00000000E+00
  0.00000000E+00  0.00000000E+00  0.00000000E+00
  0.00000000E+00  0.00000000E+00  0.00000000E+00
  0.00000000E+00  0.00000000E+00  0.00000000E+00
  0.00000000E+00  0.00000000E+00  0.00000000E+00
  0.00000000E+00  0.00000000E+00  0.00000000E+00
  0.00000000E+00  0.00000000E+00  0.00000000E+00
  0.00000000E+00  0.00000000E+00  0.00000000E+00
  0.00000000E+00  0.00000000E+00  0.00000000E+00
  0.00000000E+00  0.00000000E+00  0.00000000E+00
  0.00000000E+00  0.00000000E+00  0.00000000E+00
