SCEL2_1_1_2_0_0_0/9398
1.0
5.07419800 0.00000000 0.00000000
-2.53709900 4.39438500 0.00000000
0.00000000 0.00000000 33.14452400
   Al   Ni   Ti
   2   48   14
Direct
0.33333330    0.66666670    0.93750000    AlAl
0.33333330    0.66666670    0.12500000    AlAl
0.16666670    0.33333330    0.75000000    NiNi
0.50000000    0.00000000    0.31250000    NiNi
0.50000000    0.50000000    0.81250000    NiNi
0.50000000    0.50000000    0.31250000    NiNi
0.66666670    0.83333330    0.75000000    NiNi
0.66666670    0.83333330    0.25000000    NiNi
0.16666670    0.83333330    0.75000000    NiNi
0.16666670    0.83333330    0.25000000    NiNi
-0.00000000    0.50000000    0.31250000    NiNi
0.16666670    0.33333330    0.25000000    NiNi
-0.00000000    0.50000000    0.68750000    NiNi
-0.00000000    0.50000000    0.18750000    NiNi
0.50000000    0.00000000    0.68750000    NiNi
0.50000000    0.00000000    0.18750000    NiNi
0.50000000    0.50000000    0.68750000    NiNi
0.50000000    0.50000000    0.18750000    NiNi
0.50000000    0.00000000    0.81250000    NiNi
0.83333330    0.66666670    0.12500000    NiNi
-0.00000000    0.50000000    0.81250000    NiNi
0.16666670    0.33333330    0.37500000    NiNi
0.16666670    0.33333330    0.87500000    NiNi
0.16666670    0.83333330    0.37500000    NiNi
0.16666670    0.83333330    0.87500000    NiNi
0.66666670    0.83333330    0.37500000    NiNi
0.66666670    0.83333330    0.87500000    NiNi
0.33333330    0.16666670    0.43750000    NiNi
0.33333330    0.16666670    0.93750000    NiNi
0.83333330    0.16666670    0.43750000    NiNi
0.83333330    0.16666670    0.93750000    NiNi
0.83333330    0.66666670    0.43750000    NiNi
0.83333330    0.66666670    0.93750000    NiNi
0.83333330    0.66666670    0.62500000    NiNi
0.50000000    0.50000000    0.00000000    NiNi
0.50000000    0.50000000    0.50000000    NiNi
0.50000000    0.00000000    0.00000000    NiNi
0.50000000    0.00000000    0.50000000    NiNi
-0.00000000    0.50000000    0.00000000    NiNi
-0.00000000    0.50000000    0.50000000    NiNi
0.16666670    0.33333330    0.06250000    NiNi
0.16666670    0.33333330    0.56250000    NiNi
0.16666670    0.83333330    0.06250000    NiNi
0.16666670    0.83333330    0.56250000    NiNi
0.66666670    0.83333330    0.06250000    NiNi
0.66666670    0.83333330    0.56250000    NiNi
0.33333330    0.16666670    0.12500000    NiNi
0.33333330    0.16666670    0.62500000    NiNi
0.83333330    0.16666670    0.12500000    NiNi
0.83333330    0.16666670    0.62500000    NiNi
0.00000000    0.00000000    0.50000000    TiTi
0.66666670    0.33333330    0.06250000    TiTi
0.66666670    0.33333330    0.56250000    TiTi
0.33333330    0.66666670    0.62500000    TiTi
0.00000000    0.00000000    0.18750000    TiTi
0.00000000    0.00000000    0.68750000    TiTi
0.66666670    0.33333330    0.25000000    TiTi
0.66666670    0.33333330    0.75000000    TiTi
0.00000000    0.00000000    0.31250000    TiTi
0.00000000    0.00000000    0.81250000    TiTi
0.66666670    0.33333330    0.37500000    TiTi
0.66666670    0.33333330    0.87500000    TiTi
0.33333330    0.66666670    0.43750000    TiTi
0.00000000    0.00000000    0.00000000    TiTi
