SCEL2_1_1_2_0_0_0/9398                  
   1.00000000000000     
     5.0822254788611172    0.0000000000000000    0.0000000000000000
    -2.5411127394305586    4.4013370034717711    0.0000000000000000
    -0.0000000000000000   -0.0000000000000000   33.1682832782939983
   Al   Ni   Ti
     2    48    14
Direct
  0.3333332999999996  0.6666667000000004  0.9376845575845617
  0.3333332999999996  0.6666667000000004  0.1248154424154383
  0.1718912264012337  0.3437823528024592  0.7494950053345011
  0.4947754735987666  0.9895509471975403  0.3130049946654989
  0.4946693773006844  0.5053306226962683  0.8126126524420424
  0.4947754735954160  0.5052245264012334  0.3130049946654989
  0.6562176471941901  0.8281087735987662  0.7494950053345011
  0.6560054546044165  0.8280026773037313  0.2498873475579574
  0.1718912264045844  0.8281087735987662  0.7494950053345011
  0.1719973226993160  0.8280026773037313  0.2498873475579574
  0.0104490528058103  0.5052245264012334  0.3130049946654989
  0.1719973226962757  0.3439945453925431  0.2498873475579574
  0.9979064099984668  0.4989532049991447  0.6871191220713178
  0.9984055026891400  0.4992027513447236  0.1872614844674812
  0.5010467950008554  0.0020935900017107  0.6871191220713178
  0.5007972486552764  0.0015944973105599  0.1872614844674812
  0.5010467950006781  0.4989532049991447  0.6871191220713178
  0.5007972486555837  0.4992027513447236  0.1872614844674812
  0.4946693773037247  0.9893387546074565  0.8126126524420424
  0.8330423452982681  0.6660847905965376  0.1249983611987239
  0.0106612453955839  0.5053306226962683  0.8126126524420424
  0.1656199049991451  0.3312397099982889  0.3753808779286822
  0.1658694513447240  0.3317388026894397  0.8752385155325187
  0.1656199049993224  0.8343800950008550  0.3753808779286822
  0.1658694513444168  0.8341305486552760  0.8752385155325187
  0.6687602900015336  0.8343800950008550  0.3753808779286822
  0.6682611973108604  0.8341305486552760  0.8752385155325187
  0.3334856795428783  0.1667428897716772  0.4376562622978035
  0.3327513905964093  0.1663757452982690  0.9375016388012762
  0.8332571102287906  0.1667428897716772  0.4376562622978035
  0.8336242547018585  0.1663757452982690  0.9375016388012762
  0.8332571102283298  0.6665143204566538  0.4376562622978035
  0.8336242547017311  0.6672486094034632  0.9375016388012762
  0.8334094897716694  0.6668190795433470  0.6248437377021966
  0.4998777705261144  0.5001222294740769  0.9997268280525569
  0.4999848606854370  0.5000151393146245  0.5000355696677203
  0.4998777705259231  0.9997555410518462  0.9997268280525569
  0.4999848606853756  0.9999697213707582  0.5000355696677203
  0.0002444589479625  0.5001222294740769  0.9997268280525569
  0.0000302786291804  0.5000151393146245  0.5000355696677203
  0.1667889294740773  0.3335777589481534  0.0627731719474432
  0.1666818393146249  0.3333635786292414  0.5624644303322797
  0.1667889294738859  0.8332110705259227  0.0627731719474432
  0.1666818393145634  0.8333181606853751  0.5624644303322797
  0.6664222410520380  0.8332110705259227  0.0627731719474432
  0.6666364213708200  0.8333181606853751  0.5624644303322797
  0.3339152094035899  0.1669576547017318  0.1249983611987239
  0.3331809204571209  0.1665905102283236  0.6248437377021966
  0.8330423452981407  0.1669576547017318  0.1249983611987239
  0.8334094897712087  0.1665905102283236  0.6248437377021966
  0.0000000000000000 -0.0000000000000000  0.4998258641939146
  0.6666667000000004  0.3333332999999996  0.0609650980118337
  0.6666667000000004  0.3333332999999996  0.5626741358060854
  0.3333332999999996  0.6666667000000004  0.6253968977074476
  0.0000000000000000 -0.0000000000000000  0.1880274238774501
  0.0000000000000000 -0.0000000000000000  0.6891892090142698
  0.6666667000000004  0.3333332999999996  0.2497327916042518
  0.6666667000000004  0.3333332999999996  0.7523344695791159
  0.0000000000000000 -0.0000000000000000  0.3101655304208839
  0.0000000000000000 -0.0000000000000000  0.8127672083957483
  0.6666667000000004  0.3333332999999996  0.3733107909857301
  0.6666667000000004  0.3333332999999996  0.8744725761225499
  0.3333332999999996  0.6666667000000004  0.4371031022925524
  0.0000000000000000 -0.0000000000000000  0.0015349019881663
 
  0.00000000E+00  0.00000000E+00  0.00000000E+00
  0.00000000E+00  0.00000000E+00  0.00000000E+00
  0.00000000E+00  0.00000000E+00  0.00000000E+00
  0.00000000E+00  0.00000000E+00  0.00000000E+00
  0.00000000E+00  0.00000000E+00  0.00000000E+00
  0.00000000E+00  0.00000000E+00  0.00000000E+00
  0.00000000E+00  0.00000000E+00  0.00000000E+00
  0.00000000E+00  0.00000000E+00  0.00000000E+00
  0.00000000E+00  0.00000000E+00  0.00000000E+00
  0.00000000E+00  0.00000000E+00  0.00000000E+00
  0.00000000E+00  0.00000000E+00  0.00000000E+00
  0.00000000E+00  0.00000000E+00  0.00000000E+00
  0.00000000E+00  0.00000000E+00  0.00000000E+00
  0.00000000E+00  0.00000000E+00  0.00000000E+00
  0.00000000E+00  0.00000000E+00  0.00000000E+00
  0.00000000E+00  0.00000000E+00  0.00000000E+00
  0.00000000E+00  0.00000000E+00  0.00000000E+00
  0.00000000E+00  0.00000000E+00  0.00000000E+00
  0.00000000E+00  0.00000000E+00  0.00000000E+00
  0.00000000E+00  0.00000000E+00  0.00000000E+00
  0.00000000E+00  0.00000000E+00  0.00000000E+00
  0.00000000E+00  0.00000000E+00  0.00000000E+00
  0.00000000E+00  0.00000000E+00  0.00000000E+00
  0.00000000E+00  0.00000000E+00  0.00000000E+00
  0.00000000E+00  0.00000000E+00  0.00000000E+00
  0.00000000E+00  0.00000000E+00  0.00000000E+00
  0.00000000E+00  0.00000000E+00  0.00000000E+00
  0.00000000E+00  0.00000000E+00  0.00000000E+00
  0.00000000E+00  0.00000000E+00  0.00000000E+00
  0.00000000E+00  0.00000000E+00  0.00000000E+00
  0.00000000E+00  0.00000000E+00  0.00000000E+00
  0.00000000E+00  0.00000000E+00  0.00000000E+00
  0.00000000E+00  0.00000000E+00  0.00000000E+00
  0.00000000E+00  0.00000000E+00  0.00000000E+00
  0.00000000E+00  0.00000000E+00  0.00000000E+00
  0.00000000E+00  0.00000000E+00  0.00000000E+00
  0.00000000E+00  0.00000000E+00  0.00000000E+00
  0.00000000E+00  0.00000000E+00  0.00000000E+00
  0.00000000E+00  0.00000000E+00  0.00000000E+00
  0.00000000E+00  0.00000000E+00  0.00000000E+00
  0.00000000E+00  0.00000000E+00  0.00000000E+00
  0.00000000E+00  0.00000000E+00  0.00000000E+00
  0.00000000E+00  0.00000000E+00  0.00000000E+00
  0.00000000E+00  0.00000000E+00  0.00000000E+00
  0.00000000E+00  0.00000000E+00  0.00000000E+00
  0.00000000E+00  0.00000000E+00  0.00000000E+00
  0.00000000E+00  0.00000000E+00  0.00000000E+00
  0.00000000E+00  0.00000000E+00  0.00000000E+00
  0.00000000E+00  0.00000000E+00  0.00000000E+00
  0.00000000E+00  0.00000000E+00  0.00000000E+00
  0.00000000E+00  0.00000000E+00  0.00000000E+00
  0.00000000E+00  0.00000000E+00  0.00000000E+00
  0.00000000E+00  0.00000000E+00  0.00000000E+00
  0.00000000E+00  0.00000000E+00  0.00000000E+00
  0.00000000E+00  0.00000000E+00  0.00000000E+00
  0.00000000E+00  0.00000000E+00  0.00000000E+00
  0.00000000E+00  0.00000000E+00  0.00000000E+00
  0.00000000E+00  0.00000000E+00  0.00000000E+00
  0.00000000E+00  0.00000000E+00  0.00000000E+00
  0.00000000E+00  0.00000000E+00  0.00000000E+00
  0.00000000E+00  0.00000000E+00  0.00000000E+00
  0.00000000E+00  0.00000000E+00  0.00000000E+00
  0.00000000E+00  0.00000000E+00  0.00000000E+00
  0.00000000E+00  0.00000000E+00  0.00000000E+00
