SCEL2_1_1_2_0_0_0/9398                  
   1.00000000000000     
     5.0844073923230324   -0.0000000000000000   -0.0000000000000000
    -2.5422036961615162    4.4032265967758164   -0.0000000000000000
    -0.0000000000000000   -0.0000000000000000   33.1791623214548892
   Al   Ni   Ti
     2    48    14
Direct
  0.3333332999999996  0.6666667000000004  0.9377136828703079
  0.3333332999999996  0.6666667000000004  0.1247863171296922
  0.1716894072670924  0.3433787145341836  0.7494755201055578
  0.4949772927329080 -0.0100454145341840  0.3130244798944422
  0.4948531693290285  0.5051468306678081  0.8125750041072408
  0.4949772927294261  0.5050227072670921  0.3130244798944422
  0.6566212854623347  0.8283105927329075  0.7494755201055578
  0.6563730386612208  0.8281864693321915  0.2499249958927593
  0.1716894072705743  0.8283105927329075  0.7494755201055578
  0.1718135306709719  0.8281864693321915  0.2499249958927593
  0.0100454145376659  0.5050227072670921  0.3130244798944422
  0.1718135306678086  0.3436269613356160  0.2499249958927593
 -0.0021071230049053  0.4989464384974551  0.6870937398834199
 -0.0014667442226552  0.4992666278888404  0.1872855322297015
  0.5010535615025448  0.0021071230050897  0.6870937398834199
  0.5007333721111595  0.0014667442223191  0.1872855322297015
  0.5010535615023604  0.4989464384974551  0.6870937398834199
  0.5007333721114956  0.4992666278888404  0.1872855322297015
  0.4948531693321918 -0.0102936613356164  0.8125750041072408
  0.8330782781213185  0.6661566562426384  0.1250190300519413
  0.0102936613387797  0.5051468306678081  0.8125750041072408
  0.1656131384974555  0.3312261769949099  0.3754062601165802
  0.1659333278888409  0.3318665557776805  0.8752144677702984
  0.1656131384976400  0.8343868615025444  0.3754062601165802
  0.1659333278885048  0.8340666721111591  0.8752144677702984
  0.6687738230049058  0.8343868615025444  0.3754062601165802
  0.6681334442226555  0.8340666721111591  0.8752144677702984
  0.3335230013766834  0.1667615506885803  0.4376650455376574
  0.3328232562424909  0.1664116781213195  0.9374809699480587
  0.8332384493118957  0.1667615506885803  0.4376650455376574
  0.8335883218788271  0.1664116781213195  0.9374809699480587
  0.8332384493114198  0.6664769986228405  0.4376650455376574
  0.8335883218786807  0.6671767437573624  0.9374809699480587
  0.8334281506885794  0.6668564013771603  0.6248349544623427
  0.4999210773440358  0.5000789226561306 -0.0002448810083437
  0.4999676408536841  0.5000323591463853  0.5000343345293189
  0.4999210773438695 -0.0001578453122611 -0.0002448810083437
  0.4999676408536147 -0.0000647182927707  0.5000343345293189
  0.0001578453120947  0.5000789226561306 -0.0002448810083437
  0.0000647182927012  0.5000323591463853  0.5000343345293189
  0.1667456226561309  0.3334911453122607  0.0627448810083437
  0.1666990591463857  0.3333980182927703  0.5624656654706811
  0.1667456226559645  0.8332543773438691  0.0627448810083437
  0.1666990591463163  0.8333009408536144  0.5624656654706811
  0.6665088546879057  0.8332543773438691  0.0627448810083437
  0.6666019817072991  0.8333009408536144  0.5624656654706811
  0.3338433437575083  0.1669217218786813  0.1250190300519413
  0.3331435986233158  0.1665718493114205  0.6248349544623427
  0.8330782781211721  0.1669217218786813  0.1250190300519413
  0.8334281506881035  0.1665718493114205  0.6248349544623427
 -0.0000000000000000  0.0000000000000000  0.4998633833448918
  0.6666667000000004  0.3333332999999996  0.0610391467709376
  0.6666667000000004  0.3333332999999996  0.5626366166551083
  0.3333332999999996  0.6666667000000004  0.6253707147087986
 -0.0000000000000000  0.0000000000000000  0.1880816132123945
 -0.0000000000000000  0.0000000000000000  0.6892099322319724
  0.6666667000000004  0.3333332999999996  0.2497264101492966
  0.6666667000000004  0.3333332999999996  0.7522703734878710
 -0.0000000000000000  0.0000000000000000  0.3102296265121290
 -0.0000000000000000  0.0000000000000000  0.8127735898507035
  0.6666667000000004  0.3333332999999996  0.3732900677680277
  0.6666667000000004  0.3333332999999996  0.8744183867876055
  0.3333332999999996  0.6666667000000004  0.4371292852912015
 -0.0000000000000000  0.0000000000000000  0.0014608532290624
 
  0.00000000E+00  0.00000000E+00  0.00000000E+00
  0.00000000E+00  0.00000000E+00  0.00000000E+00
  0.00000000E+00  0.00000000E+00  0.00000000E+00
  0.00000000E+00  0.00000000E+00  0.00000000E+00
  0.00000000E+00  0.00000000E+00  0.00000000E+00
  0.00000000E+00  0.00000000E+00  0.00000000E+00
  0.00000000E+00  0.00000000E+00  0.00000000E+00
  0.00000000E+00  0.00000000E+00  0.00000000E+00
  0.00000000E+00  0.00000000E+00  0.00000000E+00
  0.00000000E+00  0.00000000E+00  0.00000000E+00
  0.00000000E+00  0.00000000E+00  0.00000000E+00
  0.00000000E+00  0.00000000E+00  0.00000000E+00
  0.00000000E+00  0.00000000E+00  0.00000000E+00
  0.00000000E+00  0.00000000E+00  0.00000000E+00
  0.00000000E+00  0.00000000E+00  0.00000000E+00
  0.00000000E+00  0.00000000E+00  0.00000000E+00
  0.00000000E+00  0.00000000E+00  0.00000000E+00
  0.00000000E+00  0.00000000E+00  0.00000000E+00
  0.00000000E+00  0.00000000E+00  0.00000000E+00
  0.00000000E+00  0.00000000E+00  0.00000000E+00
  0.00000000E+00  0.00000000E+00  0.00000000E+00
  0.00000000E+00  0.00000000E+00  0.00000000E+00
  0.00000000E+00  0.00000000E+00  0.00000000E+00
  0.00000000E+00  0.00000000E+00  0.00000000E+00
  0.00000000E+00  0.00000000E+00  0.00000000E+00
  0.00000000E+00  0.00000000E+00  0.00000000E+00
  0.00000000E+00  0.00000000E+00  0.00000000E+00
  0.00000000E+00  0.00000000E+00  0.00000000E+00
  0.00000000E+00  0.00000000E+00  0.00000000E+00
  0.00000000E+00  0.00000000E+00  0.00000000E+00
  0.00000000E+00  0.00000000E+00  0.00000000E+00
  0.00000000E+00  0.00000000E+00  0.00000000E+00
  0.00000000E+00  0.00000000E+00  0.00000000E+00
  0.00000000E+00  0.00000000E+00  0.00000000E+00
  0.00000000E+00  0.00000000E+00  0.00000000E+00
  0.00000000E+00  0.00000000E+00  0.00000000E+00
  0.00000000E+00  0.00000000E+00  0.00000000E+00
  0.00000000E+00  0.00000000E+00  0.00000000E+00
  0.00000000E+00  0.00000000E+00  0.00000000E+00
  0.00000000E+00  0.00000000E+00  0.00000000E+00
  0.00000000E+00  0.00000000E+00  0.00000000E+00
  0.00000000E+00  0.00000000E+00  0.00000000E+00
  0.00000000E+00  0.00000000E+00  0.00000000E+00
  0.00000000E+00  0.00000000E+00  0.00000000E+00
  0.00000000E+00  0.00000000E+00  0.00000000E+00
  0.00000000E+00  0.00000000E+00  0.00000000E+00
  0.00000000E+00  0.00000000E+00  0.00000000E+00
  0.00000000E+00  0.00000000E+00  0.00000000E+00
  0.00000000E+00  0.00000000E+00  0.00000000E+00
  0.00000000E+00  0.00000000E+00  0.00000000E+00
  0.00000000E+00  0.00000000E+00  0.00000000E+00
  0.00000000E+00  0.00000000E+00  0.00000000E+00
  0.00000000E+00  0.00000000E+00  0.00000000E+00
  0.00000000E+00  0.00000000E+00  0.00000000E+00
  0.00000000E+00  0.00000000E+00  0.00000000E+00
  0.00000000E+00  0.00000000E+00  0.00000000E+00
  0.00000000E+00  0.00000000E+00  0.00000000E+00
  0.00000000E+00  0.00000000E+00  0.00000000E+00
  0.00000000E+00  0.00000000E+00  0.00000000E+00
  0.00000000E+00  0.00000000E+00  0.00000000E+00
  0.00000000E+00  0.00000000E+00  0.00000000E+00
  0.00000000E+00  0.00000000E+00  0.00000000E+00
  0.00000000E+00  0.00000000E+00  0.00000000E+00
  0.00000000E+00  0.00000000E+00  0.00000000E+00
